Maximize
  0 x0 + 0 x1 + 0 x2 + 0 x3 + 0 x4 + 42 x5 + 0 x6 + 0 x7 + 0 x8 + 0 x9
   + 0 x10 + 0 x11 + 0 x12 + 0 x13 + 0 x14 + 0 x15 + 11 x16 - 29 x17
   + 12 x18 - 35 x19 + 0 x20 + 0 x21 + 0 x22 + 0 x23 + 0 x24 + 0 x25
   + 0 x26 + 0 x27 + 0 x28 + 0 x29 + 0 x30 + 0 x31 + 0 x32 + 0 x33 + 0 x34
   + 0 x35 + 0 x36 + 0 x37 + 13 x38 - 30 x39 + 0 x40 + 0 x41 + 46 x42
   - 25 x43 + 0 x44 + 0 x45 + 0 x46 + 0 x47 + 0 x48 + 0 x49 + 0 x50 + 0 x51
   + 0 x52 + 45 x53 + 0 x54 + 0 x55 + 0 x56 + 0 x57 + 0 x58 + 0 x59 + 0 x60
   + 28 x61 + 0 x62 + 0 x63 - 4 x64 + 0 x65 + 0 x66 + 0 x67 + 0 x68 + 0 x69
   + 0 x70 + 0 x71 + 0 x72 + 0 x73 + 0 x74 + 0 x75 + 0 x76 + 28 x77
   - 47 x78 + 0 x79 + [ 82 x0 * x5 - 80 x0 * x8 - 34 x0 * x9 - 6 x0 * x17
   - 12 x0 * x18 + 56 x0 * x20 - 6 x0 * x22 + 36 x0 * x23 - 36 x0 * x28
   + 2 x0 * x29 + 82 x0 * x34 + 28 x0 * x37 + 86 x0 * x38 - 30 x0 * x39
   + 42 x0 * x47 + 86 x0 * x54 + 8 x0 * x64 + 76 x0 * x65 - 92 x0 * x67
   + 66 x0 * x69 - 44 x0 * x70 + 72 x0 * x75 - 8 x1 * x2 + 56 x1 * x4
   + 44 x1 * x8 + 10 x1 * x14 + 30 x1 * x18 + 74 x1 * x22 + 72 x1 * x24
   - 60 x1 * x32 - 98 x1 * x35 - 26 x1 * x39 + 80 x1 * x44 + 58 x1 * x51
   - 72 x1 * x57 + 74 x1 * x58 + 42 x1 * x61 - 98 x1 * x62 + 44 x1 * x75
   + 22 x2 ^2 + 84 x2 * x8 + 80 x2 * x10 - 38 x2 * x13 - 38 x2 * x18
   + 84 x2 * x22 + 86 x2 * x23 - 8 x2 * x25 - 8 x2 * x26 + 12 x2 * x30
   - 44 x2 * x35 - 66 x2 * x42 + 34 x2 * x45 + 58 x2 * x46 + 94 x2 * x48
   - 84 x2 * x54 - 76 x2 * x58 - 72 x2 * x59 - 20 x2 * x61 + 4 x2 * x64
   - 68 x2 * x78 - 86 x3 * x10 + 76 x3 * x12 - 34 x3 * x14 + 58 x3 * x18
   + 64 x3 * x23 - 22 x3 * x27 - 54 x3 * x32 - 40 x3 * x53 + 10 x3 * x61
   - 78 x3 * x66 - 82 x3 * x67 + 76 x3 * x70 + 12 x3 * x72 - 34 x3 * x78
   - 23 x4 ^2 - 36 x4 * x16 - 14 x4 * x20 - 94 x4 * x31 + 84 x4 * x34
   - 30 x4 * x35 - 62 x4 * x40 - 80 x4 * x41 + 96 x4 * x42 + 62 x4 * x46
   + 36 x4 * x50 + 8 x4 * x57 - 14 x4 * x60 - 22 x4 * x61 + 72 x4 * x62
   + 10 x4 * x63 - 68 x4 * x67 + 86 x4 * x72 - 64 x4 * x73 + 52 x4 * x78
   - 54 x5 * x10 + 70 x5 * x18 - 6 x5 * x19 - 56 x5 * x20 + 34 x5 * x23
   + 16 x5 * x26 - 46 x5 * x32 - 70 x5 * x35 - 92 x5 * x43 + 72 x5 * x45
   - 40 x5 * x53 + 26 x5 * x61 - 48 x5 * x68 + 8 x5 * x70 + 80 x5 * x73
   - 24 x5 * x74 - 96 x5 * x76 + 8 x5 * x79 - 7 x6 ^2 - 52 x6 * x8
   + 2 x6 * x9 - 66 x6 * x10 + 96 x6 * x18 + 96 x6 * x19 - 18 x6 * x22
   - 78 x6 * x26 - 6 x6 * x28 - 52 x6 * x31 - 74 x6 * x33 + 8 x6 * x38
   + 62 x6 * x48 + 50 x6 * x50 - 98 x6 * x62 - 66 x6 * x63 - 64 x6 * x67
   - 32 x6 * x68 - 70 x6 * x71 + 80 x6 * x73 + 32 x6 * x75 + 78 x6 * x78
   + 86 x7 * x9 + 10 x7 * x13 - 30 x7 * x14 + 44 x7 * x17 - 94 x7 * x19
   + 56 x7 * x25 + 52 x7 * x31 - 74 x7 * x33 - 32 x7 * x35 - 70 x7 * x37
   - 32 x7 * x42 + 16 x7 * x44 - 66 x7 * x53 - 14 x7 * x63 + 82 x7 * x66
   - 34 x7 * x71 + 80 x7 * x76 - 56 x8 * x9 + 80 x8 * x12 - 24 x8 * x21
   - 28 x8 * x24 + 8 x8 * x25 - 58 x8 * x26 + 12 x8 * x31 + 98 x8 * x32
   - 78 x8 * x37 - 4 x8 * x38 - 80 x8 * x39 - 46 x8 * x41 - 26 x8 * x45
   - 46 x8 * x54 + 54 x8 * x56 - 22 x8 * x58 + 50 x8 * x60 + 18 x8 * x62
   + 2 x8 * x66 - 38 x8 * x67 - 34 x8 * x74 + 66 x9 * x13 - 24 x9 * x17
   + 36 x9 * x20 + 48 x9 * x22 - 70 x9 * x23 - 18 x9 * x26 - 60 x9 * x30
   + 52 x9 * x33 + 16 x9 * x35 - 20 x9 * x39 - 64 x9 * x58 - 60 x9 * x60
   + 98 x9 * x64 - 28 x9 * x66 - 98 x9 * x69 + 66 x9 * x73 + 74 x9 * x74
   - 38 x9 * x75 - 36 x10 * x11 - 98 x10 * x16 - 24 x10 * x24
   + 84 x10 * x33 - 22 x10 * x37 + 94 x10 * x38 - 64 x10 * x39
   + 6 x10 * x43 + 34 x10 * x49 - 74 x10 * x56 + 62 x10 * x59
   - 30 x10 * x60 + 38 x10 * x61 - 32 x10 * x78 + 33 x11 ^2 + 98 x11 * x12
   + 78 x11 * x17 + 80 x11 * x19 - 56 x11 * x22 + 16 x11 * x34
   + 90 x11 * x36 - 22 x11 * x38 - 50 x11 * x40 - 48 x11 * x42
   + 84 x11 * x51 - 90 x11 * x56 - 66 x11 * x64 + 18 x11 * x65
   + 78 x11 * x66 - 2 x11 * x74 - 68 x12 * x16 - 62 x12 * x18
   - 36 x12 * x25 + 76 x12 * x28 + 96 x12 * x30 + 26 x12 * x32
   + 56 x12 * x41 - 44 x12 * x45 + 68 x12 * x62 - 94 x12 * x73
   - 68 x12 * x79 - 32 x13 * x25 - 56 x13 * x27 - 52 x13 * x29
   + 72 x13 * x30 + 94 x13 * x33 + 36 x13 * x39 + 98 x13 * x40
   + 6 x13 * x44 + 64 x13 * x45 + 92 x13 * x52 - 74 x13 * x58
   + 62 x13 * x60 - 40 x13 * x62 - 48 x13 * x63 - 16 x13 * x64
   + 26 x13 * x67 + 80 x13 * x73 - 46 x14 * x18 - 2 x14 * x19
   - 98 x14 * x25 - 28 x14 * x26 - 80 x14 * x31 - 14 x14 * x33
   - 62 x14 * x35 + 42 x14 * x36 + 66 x14 * x39 + 98 x14 * x47
   - 80 x14 * x48 - 58 x14 * x49 + 86 x14 * x53 + 4 x14 * x59 - 8 x14 * x60
   + 56 x14 * x68 + 54 x14 * x69 + 34 x14 * x75 + 36 x15 * x18
   - 92 x15 * x32 + 24 x15 * x34 + 32 x15 * x37 - 62 x15 * x38
   - 2 x15 * x39 + 98 x15 * x42 - 46 x15 * x48 + 4 x15 * x52 - 18 x15 * x54
   + 80 x15 * x59 - 96 x15 * x64 + 64 x15 * x68 + 54 x15 * x72
   + 48 x15 * x78 + x16 ^2 + 96 x16 * x28 - 38 x16 * x32 + 70 x16 * x36
   + 66 x16 * x39 - 70 x16 * x43 - 50 x16 * x48 + 8 x16 * x56
   + 84 x16 * x57 - 16 x16 * x60 + 16 x16 * x61 + 90 x16 * x62
   + 74 x16 * x63 - 8 x16 * x77 + 56 x16 * x78 + 74 x17 * x18
   - 28 x17 * x22 + 46 x17 * x23 + 30 x17 * x24 - 98 x17 * x26
   + 72 x17 * x28 + 84 x17 * x29 - 82 x17 * x31 + 20 x17 * x34
   - 94 x17 * x36 - 78 x17 * x38 - 12 x17 * x39 + 56 x17 * x42
   - 32 x17 * x43 - 22 x17 * x44 - 12 x17 * x47 - 32 x17 * x48
   + 34 x17 * x50 - 54 x17 * x53 - 86 x17 * x55 - 24 x17 * x58
   - 90 x17 * x61 + 2 x17 * x66 - 22 x17 * x69 + 40 x17 * x77
   + 22 x17 * x79 - 28 x18 * x19 - 64 x18 * x24 + 54 x18 * x25
   - 70 x18 * x28 + 98 x18 * x34 - 32 x18 * x39 + 70 x18 * x52
   + 56 x18 * x57 - 16 x18 * x59 + 38 x18 * x61 - 14 x18 * x63
   - 14 x18 * x72 - 64 x18 * x78 + 66 x19 * x20 - 14 x19 * x23
   - 90 x19 * x24 + 62 x19 * x31 - 6 x19 * x33 + 92 x19 * x36
   - 80 x19 * x43 + 16 x19 * x46 - 28 x19 * x52 + 20 x19 * x54
   - 86 x19 * x56 + 12 x19 * x62 + 10 x19 * x71 - 80 x19 * x73
   - 8 x19 * x77 + 11 x20 ^2 - 94 x20 * x30 - 84 x20 * x34 - 28 x20 * x37
   + 16 x20 * x48 - 50 x20 * x51 - 92 x20 * x61 - 92 x20 * x65
   + 16 x20 * x70 + 42 x20 * x75 - 16 x20 * x76 + 4 x21 * x27 + 4 x21 * x30
   - 8 x21 * x34 - 20 x21 * x37 + 38 x21 * x38 - 14 x21 * x56
   - 88 x21 * x57 + 14 x21 * x58 + 72 x21 * x63 - 96 x21 * x69
   + 24 x21 * x78 + 98 x22 * x28 - 28 x22 * x31 + 28 x22 * x35
   + 20 x22 * x39 + 98 x22 * x43 + 34 x22 * x51 - 66 x22 * x52
   - 60 x22 * x58 - 98 x22 * x59 + 68 x22 * x63 - 16 x22 * x79
   - 34 x23 * x26 + 82 x23 * x29 + 70 x23 * x30 - 4 x23 * x32
   - 48 x23 * x35 + 60 x23 * x38 - 48 x23 * x41 + 22 x23 * x43
   + 76 x23 * x50 + 84 x23 * x51 + 12 x23 * x57 + 80 x23 * x68
   + 42 x23 * x69 - 78 x23 * x71 + 44 x23 * x75 + 36 x23 * x79
   - 18 x24 * x32 - 64 x24 * x34 + 44 x24 * x35 + 58 x24 * x38
   + 48 x24 * x39 + 8 x24 * x44 + 56 x24 * x53 - 18 x24 * x54
   + 76 x24 * x58 + 38 x24 * x62 + 42 x24 * x71 + 52 x24 * x72
   + 52 x24 * x73 + 18 x24 * x76 - 98 x24 * x77 + 60 x25 * x30
   - 44 x25 * x32 + 12 x25 * x34 - 98 x25 * x36 + 18 x25 * x39
   + 16 x25 * x42 + 62 x25 * x44 + 16 x25 * x47 - 12 x25 * x50
   - 30 x25 * x51 - 14 x25 * x54 - 66 x25 * x59 - 42 x25 * x67
   - 74 x25 * x68 + 86 x25 * x69 + 40 x25 * x73 - 22 x25 * x75
   + 34 x25 * x76 - 14 x26 * x29 - 84 x26 * x37 + 88 x26 * x40
   - 34 x26 * x42 - 68 x26 * x43 - 86 x26 * x44 - 84 x26 * x49
   + 74 x26 * x50 - 52 x26 * x53 + 18 x26 * x58 + 64 x26 * x63
   + 22 x26 * x66 + 54 x26 * x67 + 22 x26 * x74 - 26 x26 * x75
   - 22 x26 * x76 + 84 x26 * x78 + 28 x27 * x29 - 54 x27 * x30
   + 8 x27 * x32 + 38 x27 * x43 - 50 x27 * x45 + 66 x27 * x54
   + 18 x27 * x59 + 18 x27 * x60 - 46 x27 * x63 + 66 x27 * x66
   + 6 x27 * x69 - 32 x27 * x74 - 25 x28 ^2 + 52 x28 * x42 - 60 x28 * x53
   - 26 x28 * x56 + 48 x28 * x59 - 54 x28 * x61 + 42 x28 * x62
   - 58 x28 * x64 - 16 x28 * x65 + 6 x28 * x68 - 24 x28 * x73
   + 52 x28 * x78 - 92 x29 * x35 + 88 x29 * x36 + 8 x29 * x43
   + 82 x29 * x44 - 90 x29 * x50 - 88 x29 * x52 - 4 x29 * x61
   - 84 x29 * x64 + 14 x29 * x74 + 4 x29 * x75 + 22 x30 ^2 - 80 x30 * x32
   - 50 x30 * x38 - 46 x30 * x39 + 66 x30 * x42 + 54 x30 * x45
   + 80 x30 * x47 + 60 x30 * x48 - 42 x30 * x49 + 8 x30 * x56
   - 66 x30 * x57 + 8 x30 * x62 + 76 x30 * x64 - 16 x30 * x68
   - 56 x30 * x72 + 16 x30 * x76 - 62 x31 * x32 + 54 x31 * x38
   + 10 x31 * x50 + 16 x31 * x52 - 60 x31 * x55 - 54 x31 * x62
   - 88 x31 * x63 + 2 x31 * x65 - 68 x31 * x67 + 18 x31 * x72
   + 62 x31 * x76 + 22 x32 * x35 - 94 x32 * x38 + 14 x32 * x43
   - 16 x32 * x45 - 24 x32 * x47 + 8 x32 * x49 - 82 x32 * x52
   - 76 x32 * x53 + 10 x32 * x54 - 30 x32 * x63 - 62 x32 * x71
   + 32 x32 * x79 + 16 x33 ^2 - 2 x33 * x37 - 92 x33 * x40 - 50 x33 * x46
   - 92 x33 * x47 - 46 x33 * x51 - 78 x33 * x52 + 10 x33 * x58
   + 2 x33 * x59 - 80 x33 * x61 - 38 x33 * x65 + 46 x33 * x69
   - 28 x33 * x70 + 10 x33 * x71 - 38 x33 * x74 - 98 x33 * x78
   - 48 x34 * x41 + 94 x34 * x42 - 92 x34 * x55 - 54 x34 * x61
   + 44 x34 * x65 + 44 x34 * x67 + 52 x34 * x68 + 2 x34 * x70
   + 24 x34 * x75 + 64 x34 * x76 - 8 x35 * x41 + 94 x35 * x42 + 2 x35 * x48
   + 86 x35 * x52 + 96 x35 * x57 + 10 x35 * x65 - 30 x35 * x71
   + 24 x35 * x73 - 78 x36 * x37 - 94 x36 * x43 + 92 x36 * x52
   + 38 x36 * x55 - 84 x36 * x62 - 22 x36 * x66 - 4 x36 * x69
   + 60 x36 * x71 - 24 x36 * x74 + 6 x36 * x75 + 8 x36 * x76 - 88 x36 * x77
   + 58 x36 * x78 - 8 x37 ^2 - 44 x37 * x38 - 48 x37 * x39 + 60 x37 * x46
   + 94 x37 * x49 + 80 x37 * x53 + 28 x37 * x57 + 82 x37 * x60
   + 80 x37 * x62 + 74 x37 * x66 + 40 x37 * x71 - 50 x37 * x78
   + 76 x38 * x42 - 68 x38 * x59 - 14 x38 * x70 - 72 x38 * x72
   - 24 x38 * x76 - 14 x39 * x40 - 66 x39 * x44 - 90 x39 * x51
   + 62 x39 * x52 - 92 x39 * x53 + 16 x39 * x54 + 82 x39 * x62
   + 2 x39 * x68 + 90 x39 * x70 - 58 x39 * x71 + 50 x39 * x72
   + 54 x39 * x77 - 13 x40 ^2 + 14 x40 * x42 - 70 x40 * x50 + 94 x40 * x57
   + 32 x40 * x59 - 30 x40 * x60 - 6 x40 * x61 + 2 x40 * x64 + 94 x40 * x65
   + 76 x40 * x66 + 16 x40 * x67 - 12 x40 * x77 + 48 x40 * x78
   - 6 x40 * x79 + 88 x41 * x46 + 20 x41 * x50 + 28 x41 * x54
   - 80 x41 * x69 + 66 x41 * x72 - 80 x42 * x51 + 50 x42 * x53
   + 92 x42 * x59 + 40 x42 * x66 - 80 x42 * x71 - 68 x42 * x75
   - 38 x43 * x44 + 74 x43 * x46 + 88 x43 * x49 + 80 x43 * x52
   - 26 x43 * x59 + 42 x43 * x68 - 60 x43 * x75 - 50 x43 * x76
   - 14 x43 * x79 + 22 x44 ^2 - 26 x44 * x48 + 14 x44 * x67 - 32 x44 * x68
   + 82 x44 * x69 + 70 x44 * x71 + 64 x44 * x78 - 68 x45 * x56
   + 58 x45 * x58 + 28 x45 * x59 - 10 x45 * x60 - 20 x45 * x68
   - 34 x45 * x71 - 70 x45 * x72 + 68 x46 * x52 - 54 x46 * x54
   - 74 x46 * x55 - 80 x46 * x58 - 54 x46 * x59 - 60 x46 * x61
   + 18 x46 * x65 + 94 x46 * x70 - 46 x46 * x75 - 78 x46 * x79
   + 56 x47 * x51 - 14 x47 * x54 - 14 x47 * x55 - 10 x47 * x56
   - 18 x47 * x60 + 30 x47 * x62 - 16 x47 * x64 + 24 x48 * x49
   + 32 x48 * x58 - 80 x48 * x60 + 54 x48 * x66 + 8 x48 * x71
   - 78 x48 * x72 - 54 x48 * x77 + 26 x49 * x57 + 28 x49 * x61
   + 28 x49 * x62 - 96 x49 * x63 - 8 x49 * x64 + 66 x49 * x65
   - 46 x49 * x70 - 36 x49 * x77 + 72 x50 * x60 - 54 x50 * x63
   - 26 x50 * x65 - 6 x50 * x69 - 84 x50 * x71 - 30 x51 * x55
   + 30 x51 * x67 + 46 x51 * x69 - 8 x51 * x72 + 30 x52 * x54
   - 88 x52 * x56 + 68 x52 * x57 - 4 x52 * x58 - 48 x52 * x59
   - 44 x52 * x62 - 86 x52 * x63 + 28 x52 * x67 + 68 x52 * x68
   - 8 x53 * x55 - 58 x53 * x60 + 86 x53 * x61 + 10 x53 * x63
   - 78 x53 * x70 + 78 x53 * x76 + 92 x54 * x57 - 88 x54 * x61
   - 26 x54 * x63 - 38 x54 * x65 + 12 x54 * x66 + 32 x54 * x69
   - 82 x54 * x72 + 56 x54 * x76 - 6 x55 * x58 - 54 x55 * x64
   - 92 x55 * x65 + 72 x55 * x70 + 6 x55 * x72 - 82 x55 * x74 + 26 x56 ^2
   - 36 x56 * x58 + 46 x56 * x59 - 88 x56 * x67 - 18 x56 * x70
   + 66 x56 * x77 + 54 x56 * x79 + 58 x57 * x59 + 30 x57 * x64
   - 68 x57 * x66 - 28 x57 * x68 + 20 x57 * x69 + 64 x57 * x72
   - 24 x57 * x77 - 62 x57 * x78 + 90 x58 * x61 + 54 x58 * x66
   - 82 x58 * x73 + 60 x58 * x79 - 6 x59 * x60 - 18 x59 * x67
   + 20 x59 * x69 - 66 x59 * x72 - 8 x60 * x66 + 78 x60 * x72
   + 46 x60 * x73 + 92 x60 * x79 - 34 x61 * x63 + 76 x61 * x69
   - 48 x61 * x73 + 50 x62 * x65 + 54 x62 * x67 + 74 x62 * x68
   + 26 x62 * x74 + 10 x63 * x64 + 8 x63 * x72 - 98 x63 * x73
   + 82 x63 * x76 + 30 x63 * x77 - 44 x64 * x70 - 56 x64 * x72
   - 30 x64 * x73 - 64 x64 * x77 + 92 x65 * x69 + 2 x65 * x70
   + 50 x65 * x75 - 60 x65 * x77 - 44 x66 * x67 - 92 x66 * x68
   - 10 x66 * x71 + 90 x66 * x74 - 36 x66 * x76 + 20 x66 * x78 - 17 x67 ^2
   - 76 x67 * x72 + 22 x67 * x78 - 20 x67 * x79 + 80 x69 * x70
   + 46 x69 * x75 + 12 x69 * x76 - 68 x69 * x77 - 20 x69 * x78
   - 54 x70 * x74 + 74 x70 * x75 - 14 x71 * x79 + 17 x72 ^2 - 34 x72 * x73
   - 34 x72 * x74 + 68 x73 * x75 - 90 x73 * x78 - 28 x77 * x78 + 27 x78 ^2
   ] / 2 
Subject To
Bounds
 x0 <= 1
 x1 <= 1
 x2 <= 1
 x3 <= 1
 x4 <= 1
 x5 <= 1
 x6 <= 1
 x7 <= 1
 x8 <= 1
 x9 <= 1
 x10 <= 1
 x11 <= 1
 x12 <= 1
 x13 <= 1
 x14 <= 1
 x15 <= 1
 x16 <= 1
 x17 <= 1
 x18 <= 1
 x19 <= 1
 x20 <= 1
 x21 <= 1
 x22 <= 1
 x23 <= 1
 x24 <= 1
 x25 <= 1
 x26 <= 1
 x27 <= 1
 x28 <= 1
 x29 <= 1
 x30 <= 1
 x31 <= 1
 x32 <= 1
 x33 <= 1
 x34 <= 1
 x35 <= 1
 x36 <= 1
 x37 <= 1
 x38 <= 1
 x39 <= 1
 x40 <= 1
 x41 <= 1
 x42 <= 1
 x43 <= 1
 x44 <= 1
 x45 <= 1
 x46 <= 1
 x47 <= 1
 x48 <= 1
 x49 <= 1
 x50 <= 1
 x51 <= 1
 x52 <= 1
 x53 <= 1
 x54 <= 1
 x55 <= 1
 x56 <= 1
 x57 <= 1
 x58 <= 1
 x59 <= 1
 x60 <= 1
 x61 <= 1
 x62 <= 1
 x63 <= 1
 x64 <= 1
 x65 <= 1
 x66 <= 1
 x67 <= 1
 x68 <= 1
 x69 <= 1
 x70 <= 1
 x71 <= 1
 x72 <= 1
 x73 <= 1
 x74 <= 1
 x75 <= 1
 x76 <= 1
 x77 <= 1
 x78 <= 1
 x79 <= 1
End
